# mp2/6-31g** opt=z-matrix

si

0 1
xx
 n   1 nxx2    
 h    2 hn3         1 hnxx3     
 h    2 hn4         1 hnxx4         3 dih4   
 h    2 hn5         1 hnxx5         4 dih5   
 
nxx2        0.960400
hn3         1.008000
hn4         1.008000
dih4        120.000
hn5         1.008000
dih5        120.000
 
hnxx3      115.00
hnxx4      115.00
hnxx5      115.00
